Normalized Data/p04_3070_tsplib0_normalized_split0.vrp
NAME:p04_3070_tsplib0_NORMALIZED_split
BEST_KNOWN: 0
COMMENT: 0
DIMENSION: 794
CAPACITY: 100
EDGE_WEIGHT_FORMAT: FUNCTION
EDGE_WEIGHT_TYPE: EXACT_2D
NODE_COORD_SECTION
1 0.00000 0.00000
2 2 17
3 2 17
4 2 17
5 2 17
6 2 17
7 2 17
8 2 17
9 14 14
10 14 14
11 14 14
12 17 29
13 17 29
14 17 29
15 17 29
16 17 29
17 17 29
18 17 29
19 -15 -9
20 -15 -9
21 -15 -9
22 -15 -9
23 -15 -9
24 5 -5
25 5 -5
26 5 -5
27 5 -5
28 5 -5
29 -14 12
30 -14 12
31 -14 12
32 -14 12
33 -14 12
34 -14 12
35 -14 12
36 -18 28
37 -18 28
38 -18 28
39 -18 28
40 -18 28
41 -18 28
42 -18 28
43 -4 27
44 -4 27
45 -4 27
46 -4 27
47 -4 27
48 -4 27
49 17 -2
50 17 -2
51 17 -2
52 17 -2
53 17 -2
54 17 -2
55 16 -14
56 16 -14
57 16 -14
58 7 6
59 7 6
60 7 6
61 7 6
62 7 6
63 -4 -3
64 -4 -3
65 -4 -3
66 -30 -10
67 -30 -10
68 -30 -10
69 -30 -10
70 -30 -10
71 -30 -10
72 -23 7
73 -23 7
74 -23 7
75 1 -19
76 1 -19
77 1 -19
78 1 -19
79 1 -19
80 1 -19
81 1 -19
82 17 6
83 17 6
84 17 6
85 -8 -12
86 -8 -12
87 -8 -12
88 -8 -12
89 -8 -12
90 -18 -2
91 -18 -2
92 -18 -2
93 -22 -22
94 -22 -22
95 -22 -22
96 -22 -22
97 -22 -22
98 -22 -22
99 -22 -22
100 22 23
101 22 23
102 22 23
103 22 23
104 27 7
105 27 7
106 27 7
107 27 7
108 27 7
109 27 7
110 7 22
111 7 22
112 7 22
113 7 22
114 -19 22
115 -19 22
116 -19 22
117 -19 22
118 -19 22
119 -27 17
120 -27 17
121 -27 17
122 -27 17
123 -27 17
124 -27 17
125 -28 3
126 -28 3
127 -28 3
128 -28 3
129 -8 33
130 -8 33
131 -8 33
132 -8 33
133 -8 33
134 -8 33
135 -8 33
136 -8 33
137 -5 13
138 -5 13
139 -5 13
140 8 32
141 8 32
142 8 32
143 8 32
144 23 13
145 23 13
146 23 13
147 23 13
148 23 -8
149 23 -8
150 23 -8
151 23 -8
152 23 -8
153 23 -8
154 2 34
155 2 34
156 2 34
157 2 34
158 2 34
159 2 34
160 2 34
161 3 11
162 3 11
163 3 11
164 3 11
165 3 11
166 11 -25
167 11 -25
168 11 -25
169 11 -25
170 11 -25
171 11 -25
172 26 -2
173 26 -2
174 26 -2
175 26 -2
176 26 -2
177 26 -2
178 27 28
179 27 28
180 27 28
181 27 28
182 27 28
183 27 28
184 28 34
185 28 34
186 28 34
187 28 34
188 28 34
189 28 34
190 28 34
191 -3 -13
192 -3 -13
193 -3 -13
194 -3 -13
195 10 0
196 10 0
197 10 0
198 10 0
199 10 0
200 10 0
201 10 0
202 24 -20
203 24 -20
204 24 -20
205 24 -20
206 24 -20
207 24 -20
208 24 -20
209 -30 -29
210 -30 -29
211 -30 -29
212 -30 -29
213 -30 -29
214 -30 -29
215 -25 -18
216 -25 -18
217 -25 -18
218 -25 -18
219 -25 -18
220 -14 -25
221 -14 -25
222 -14 -25
223 -14 -25
224 -30 29
225 -30 29
226 -30 29
227 -30 29
228 -5 -20
229 -5 -20
230 -5 -20
231 -5 -20
232 -5 -20
233 4 -25
234 4 -25
235 4 -25
236 4 -25
237 -3 4
238 -3 4
239 -3 4
240 -10 -3
241 -10 -3
242 -10 -3
243 -10 -3
244 -10 -3
245 -10 -3
246 -10 -3
247 -10 20
248 -10 20
249 -10 20
250 -10 20
251 -10 20
252 13 -7
253 13 -7
254 13 -7
255 13 -7
256 13 -7
257 13 -7
258 21 2
259 21 2
260 21 2
261 21 2
262 21 2
263 21 2
264 21 2
265 6 14
266 6 14
267 6 14
268 6 14
269 6 14
270 0 -18
271 0 -18
272 0 -18
273 0 -18
274 0 -18
275 20 10
276 20 10
277 20 10
278 20 10
279 20 10
280 20 -15
281 20 -15
282 20 -15
283 20 -15
284 20 -15
285 -20 -5
286 -20 -5
287 -20 -5
288 -20 -5
289 -20 -5
290 -20 -5
291 -20 -5
292 -20 -5
293 -10 -5
294 -10 -5
295 -10 -5
296 -10 -5
297 -10 -5
298 -10 -5
299 -10 -5
300 -10 -5
301 -15 15
302 -15 15
303 -15 15
304 -15 15
305 -25 8
306 -25 8
307 -25 8
308 -25 8
309 -25 8
310 -25 8
311 -25 8
312 20 25
313 20 25
314 20 25
315 20 25
316 -5 25
317 -5 25
318 -5 25
319 -5 25
320 -5 25
321 -15 30
322 -15 30
323 -15 30
324 -15 30
325 15 0
326 15 0
327 -5 -10
328 -5 -10
329 -5 -10
330 -5 -10
331 -20 -25
332 -20 -25
333 -20 -25
334 -5 -30
335 -5 -30
336 -5 -30
337 -5 -30
338 -5 -30
339 -5 -30
340 -25 -15
341 -25 -15
342 -25 -15
343 -25 -15
344 -25 -15
345 -25 -15
346 -25 -15
347 -30 -5
348 -30 -5
349 -30 -5
350 -30 -5
351 -30 -5
352 -30 -5
353 -30 -5
354 -15 5
355 -15 5
356 -15 5
357 -15 5
358 -15 5
359 -20 25
360 -20 25
361 -20 25
362 -20 25
363 -20 25
364 -20 25
365 -20 25
366 -20 25
367 10 30
368 10 30
369 10 30
370 10 30
371 10 30
372 10 30
373 10 30
374 10 -15
375 10 -15
376 10 -15
377 10 -15
378 10 -15
379 10 -15
380 10 -25
381 10 -25
382 10 -25
383 10 -25
384 20 -30
385 20 -30
386 20 -30
387 20 -30
388 20 -30
389 20 -30
390 30 0
391 30 0
392 30 0
393 30 0
394 30 0
395 30 0
396 30 0
397 30 0
398 30 -15
399 30 -15
400 30 -15
401 30 -15
402 10 -5
403 10 -5
404 10 -5
405 10 -5
406 10 -5
407 0 5
408 0 5
409 0 5
410 0 5
411 0 5
412 0 5
413 6 2
414 6 2
415 6 2
416 6 2
417 6 2
418 6 2
419 6 2
420 29 7
421 29 7
422 29 7
423 29 7
424 29 7
425 5 25
426 5 25
427 5 25
428 5 25
429 5 25
430 -4 17
431 -4 17
432 -4 17
433 -4 17
434 -4 17
435 0 34
436 0 34
437 0 34
438 18 17
439 18 17
440 18 17
441 18 17
442 18 17
443 18 17
444 30 20
445 30 20
446 30 20
447 30 20
448 28 30
449 28 30
450 28 30
451 28 30
452 28 30
453 28 30
454 28 30
455 28 30
456 -33 25
457 -33 25
458 -33 25
459 -33 25
460 -15 -15
461 -15 -15
462 -15 -15
463 -15 -15
464 -15 -15
465 -15 -15
466 -15 -15
467 -15 -15
468 -30 -30
469 -30 -30
470 -30 -30
471 -30 -30
472 -30 -30
473 25 -23
474 25 -23
475 25 -23
476 25 -23
477 25 -23
478 25 -23
479 25 -23
480 5 -10
481 5 -10
482 5 -10
483 5 -10
484 5 -10
485 5 -10
486 7 -28
487 7 -28
488 7 -28
489 7 -28
490 7 -28
491 -11 -23
492 -11 -23
493 -11 -23
494 -11 -23
495 -11 -23
496 -11 -23
497 -12 -32
498 -12 -32
499 -12 -32
500 -12 -32
501 -12 -32
502 -24 -21
503 -24 -21
504 -24 -21
505 -24 -21
506 -24 -21
507 -24 -21
508 -29 3
509 -29 3
510 -29 3
511 -29 3
512 -29 3
513 -29 3
514 -33 13
515 -33 13
516 -33 13
517 -33 13
518 -27 21
519 -27 21
520 -27 21
521 -22 17
522 -22 17
523 -22 17
524 -22 17
525 -22 17
526 -29 33
527 -29 33
528 -29 33
529 12 12
530 12 12
531 12 12
532 12 12
533 12 12
534 12 12
535 14 23
536 14 23
537 14 23
538 14 23
539 14 23
540 -8 8
541 -8 8
542 -8 8
543 -8 8
544 2 -4
545 2 -4
546 2 -4
547 22 -6
548 22 -6
549 22 -6
550 22 -6
551 22 -6
552 22 -6
553 22 -6
554 28 -12
555 28 -12
556 28 -12
557 28 -12
558 28 -12
559 18 -23
560 18 -23
561 18 -23
562 18 -23
563 18 -23
564 18 -23
565 -3 -23
566 -3 -23
567 -3 -23
568 -3 -23
569 -3 -23
570 1 -9
571 1 -9
572 1 -9
573 1 -9
574 1 -9
575 -14 -11
576 -14 -11
577 -14 -11
578 -14 -11
579 -18 -1
580 -18 -1
581 -18 -1
582 -18 -1
583 -18 -1
584 -23 -11
585 -23 -11
586 -23 -11
587 -23 -11
588 -23 -11
589 -11 23
590 -11 23
591 -11 23
592 -11 23
593 -11 23
594 -8 34
595 -8 34
596 -20 42
597 -20 42
598 -20 42
599 -20 42
600 27 42
601 27 42
602 27 42
603 27 42
604 27 42
605 27 42
606 14 38
607 14 38
608 14 38
609 32 -30
610 32 -30
611 32 -30
612 32 -30
613 32 -30
614 32 -30
615 21 4
616 21 4
617 21 4
618 21 4
619 21 4
620 21 4
621 2 12
622 2 12
623 2 12
624 2 21
625 2 21
626 2 21
627 2 21
628 2 21
629 2 21
630 22 33
631 22 33
632 22 33
633 22 33
634 22 33
635 12 -19
636 12 -19
637 12 -19
638 12 -19
639 12 -19
640 12 -19
641 12 -19
642 9 -18
643 9 -18
644 9 -18
645 9 -18
646 11 -22
647 11 -22
648 11 -22
649 14 -24
650 14 -24
651 14 -24
652 14 -24
653 14 -24
654 14 7
655 14 7
656 14 7
657 14 7
658 18 8
659 18 8
660 18 8
661 18 8
662 18 8
663 18 8
664 18 8
665 26 17
666 26 17
667 26 17
668 26 17
669 26 17
670 26 17
671 26 17
672 22 13
673 22 13
674 22 13
675 22 13
676 22 13
677 22 13
678 21 2
679 21 2
680 21 2
681 21 2
682 21 2
683 21 2
684 20 19
685 20 19
686 20 19
687 20 19
688 -20 12
689 -20 12
690 -20 12
691 -20 12
692 -20 12
693 -20 12
694 -20 12
695 -21 2
696 -21 2
697 -21 2
698 -21 2
699 -24 -4
700 -24 -4
701 -24 -4
702 -24 -4
703 -24 -4
704 -24 -4
705 -24 -4
706 -24 -4
707 -19 -13
708 -19 -13
709 -19 -13
710 -19 -13
711 -31 -17
712 -31 -17
713 -31 -17
714 -31 -17
715 -31 -17
716 -31 -17
717 -7 -17
718 -7 -17
719 -7 -17
720 -7 -17
721 -7 -17
722 -9 17
723 -9 17
724 -9 17
725 -9 17
726 -9 0
727 -9 0
728 -9 0
729 -9 0
730 -4 32
731 -4 32
732 -4 32
733 -4 32
734 -4 32
735 -4 32
736 -20 -16
737 -20 -16
738 -20 -16
739 -20 -16
740 -20 -16
741 -13 -13
742 -13 -13
743 -13 -13
744 -13 -13
745 -13 -13
746 -13 -13
747 -13 -13
748 -17 -11
749 -17 -11
750 -17 -11
751 -17 -11
752 -17 -11
753 -17 -11
754 -9 -8
755 -9 -8
756 -9 -8
757 -9 -8
758 -9 -8
759 -10 -11
760 -10 -11
761 -10 -11
762 -10 -11
763 -10 -11
764 -13 -8
765 -13 -8
766 -13 -8
767 -13 -8
768 -13 -8
769 -13 -8
770 -10 -14
771 -10 -14
772 -10 -14
773 -10 -14
774 -10 -14
775 -10 -14
776 -10 -14
777 -10 -14
778 -16 -14
779 -16 -14
780 -16 -14
781 -16 -14
782 -16 -14
783 -16 -14
784 -15 -9
785 -15 -9
786 -15 -9
787 -15 -9
788 -15 -9
789 -17 -17
790 -17 -17
791 -17 -17
792 -17 -17
793 -17 -17
794 -17 -17
DEMAND_SECTION
1 0
2 20
3 20
4 20
5 1
6 1
7 1
8 1
9 20
10 20
11 5
12 20
13 10
14 5
15 1
16 1
17 1
18 1
19 20
20 20
21 10
22 1
23 1
24 20
25 20
26 20
27 5
28 1
29 20
30 20
31 20
32 1
33 1
34 1
35 1
36 20
37 20
38 5
39 1
40 1
41 1
42 1
43 20
44 10
45 1
46 1
47 1
48 1
49 20
50 10
51 5
52 1
53 1
54 1
55 20
56 10
57 1
58 20
59 20
60 20
61 1
62 1
63 20
64 20
65 5
66 20
67 20
68 5
69 1
70 1
71 1
72 20
73 20
74 10
75 20
76 20
77 10
78 5
79 1
80 1
81 1
82 20
83 20
84 1
85 20
86 10
87 1
88 1
89 1
90 20
91 20
92 10
93 20
94 20
95 20
96 1
97 1
98 1
99 1
100 20
101 20
102 10
103 1
104 20
105 10
106 1
107 1
108 1
109 1
110 20
111 20
112 10
113 5
114 20
115 20
116 10
117 5
118 1
119 20
120 20
121 10
122 1
123 1
124 1
125 20
126 20
127 20
128 1
129 20
130 20
131 10
132 5
133 1
134 1
135 1
136 1
137 20
138 10
139 1
140 20
141 20
142 20
143 1
144 20
145 10
146 5
147 1
148 20
149 10
150 1
151 1
152 1
153 1
154 20
155 20
156 20
157 1
158 1
159 1
160 1
161 20
162 20
163 20
164 1
165 1
166 20
167 20
168 20
169 1
170 1
171 1
172 20
173 10
174 5
175 1
176 1
177 1
178 20
179 20
180 20
181 1
182 1
183 1
184 20
185 20
186 5
187 1
188 1
189 1
190 1
191 20
192 20
193 20
194 1
195 20
196 20
197 5
198 1
199 1
200 1
201 1
202 20
203 20
204 5
205 1
206 1
207 1
208 1
209 20
210 20
211 20
212 1
213 1
214 1
215 20
216 10
217 5
218 1
219 1
220 20
221 10
222 1
223 1
224 20
225 20
226 10
227 5
228 20
229 20
230 10
231 5
232 1
233 20
234 20
235 20
236 5
237 20
238 20
239 1
240 20
241 20
242 5
243 1
244 1
245 1
246 1
247 20
248 20
249 5
250 1
251 1
252 20
253 20
254 20
255 1
256 1
257 1
258 20
259 20
260 10
261 1
262 1
263 1
264 1
265 20
266 20
267 10
268 5
269 1
270 20
271 20
272 10
273 5
274 1
275 20
276 10
277 1
278 1
279 1
280 20
281 20
282 20
283 5
284 1
285 20
286 20
287 10
288 5
289 1
290 1
291 1
292 1
293 20
294 20
295 10
296 5
297 1
298 1
299 1
300 1
301 20
302 20
303 1
304 1
305 20
306 20
307 10
308 5
309 1
310 1
311 1
312 20
313 20
314 5
315 1
316 20
317 20
318 1
319 1
320 1
321 20
322 20
323 20
324 5
325 20
326 20
327 20
328 20
329 1
330 1
331 20
332 20
333 1
334 20
335 20
336 1
337 1
338 1
339 1
340 20
341 20
342 5
343 1
344 1
345 1
346 1
347 20
348 20
349 20
350 1
351 1
352 1
353 1
354 20
355 10
356 1
357 1
358 1
359 20
360 20
361 20
362 5
363 1
364 1
365 1
366 1
367 20
368 20
369 20
370 1
371 1
372 1
373 1
374 20
375 20
376 20
377 5
378 1
379 1
380 20
381 20
382 20
383 5
384 20
385 20
386 20
387 1
388 1
389 1
390 20
391 20
392 20
393 5
394 1
395 1
396 1
397 1
398 20
399 10
400 1
401 1
402 20
403 20
404 1
405 1
406 1
407 20
408 20
409 10
410 1
411 1
412 1
413 20
414 20
415 10
416 5
417 1
418 1
419 1
420 20
421 20
422 10
423 1
424 1
425 20
426 20
427 20
428 1
429 1
430 20
431 20
432 10
433 5
434 1
435 20
436 20
437 1
438 20
439 20
440 10
441 5
442 1
443 1
444 20
445 20
446 10
447 5
448 20
449 20
450 20
451 5
452 1
453 1
454 1
455 1
456 20
457 20
458 20
459 1
460 20
461 20
462 20
463 5
464 1
465 1
466 1
467 1
468 20
469 20
470 20
471 1
472 1
473 20
474 20
475 20
476 1
477 1
478 1
479 1
480 20
481 10
482 1
483 1
484 1
485 1
486 20
487 20
488 20
489 1
490 1
491 20
492 20
493 10
494 1
495 1
496 1
497 20
498 10
499 5
500 1
501 1
502 20
503 20
504 20
505 5
506 1
507 1
508 20
509 20
510 10
511 5
512 1
513 1
514 20
515 20
516 20
517 1
518 20
519 20
520 20
521 20
522 20
523 5
524 1
525 1
526 20
527 20
528 20
529 20
530 10
531 1
532 1
533 1
534 1
535 20
536 20
537 10
538 5
539 1
540 20
541 20
542 20
543 1
544 20
545 20
546 20
547 20
548 20
549 20
550 5
551 1
552 1
553 1
554 20
555 20
556 5
557 1
558 1
559 20
560 10
561 5
562 1
563 1
564 1
565 20
566 10
567 1
568 1
569 1
570 20
571 20
572 10
573 1
574 1
575 20
576 20
577 1
578 1
579 20
580 20
581 20
582 5
583 1
584 20
585 20
586 20
587 5
588 1
589 20
590 20
591 10
592 5
593 1
594 20
595 10
596 20
597 20
598 1
599 1
600 20
601 20
602 10
603 5
604 1
605 1
606 20
607 20
608 5
609 20
610 20
611 1
612 1
613 1
614 1
615 20
616 20
617 20
618 1
619 1
620 1
621 20
622 20
623 20
624 20
625 20
626 20
627 5
628 1
629 1
630 20
631 20
632 1
633 1
634 1
635 20
636 20
637 5
638 1
639 1
640 1
641 1
642 20
643 10
644 1
645 1
646 20
647 20
648 5
649 20
650 20
651 10
652 5
653 1
654 20
655 20
656 10
657 1
658 20
659 20
660 20
661 5
662 1
663 1
664 1
665 20
666 20
667 5
668 1
669 1
670 1
671 1
672 20
673 20
674 10
675 5
676 1
677 1
678 20
679 20
680 5
681 1
682 1
683 1
684 20
685 20
686 10
687 5
688 20
689 20
690 10
691 1
692 1
693 1
694 1
695 20
696 20
697 20
698 1
699 20
700 20
701 10
702 5
703 1
704 1
705 1
706 1
707 20
708 20
709 20
710 1
711 20
712 20
713 10
714 1
715 1
716 1
717 20
718 20
719 10
720 1
721 1
722 20
723 20
724 1
725 1
726 20
727 20
728 1
729 1
730 20
731 20
732 20
733 5
734 1
735 1
736 20
737 20
738 10
739 1
740 1
741 20
742 20
743 10
744 1
745 1
746 1
747 1
748 20
749 20
750 10
751 1
752 1
753 1
754 20
755 10
756 5
757 1
758 1
759 20
760 20
761 10
762 5
763 1
764 20
765 20
766 10
767 5
768 1
769 1
770 20
771 20
772 20
773 5
774 1
775 1
776 1
777 1
778 20
779 10
780 5
781 1
782 1
783 1
784 20
785 20
786 10
787 1
788 1
789 20
790 20
791 1
792 1
793 1
794 1
DEPOT_SECTION
1
-1
EOF