Normalized Data/p04_3070_tsplib0_normalized_split0.sol
793 -1 3 625 623 624 -6 5 4 2 7 433 430 432 429 431 136 -16 17 12 15 13 14 11 538 537 534 536 535 -18 785 20 21 765 766 764 763 767 768 -19 783 585 583 584 -22 784 787 786 747 751 752 750 748 749 577 574 576 -25 26 27 23 24 571 569 572 573 -28 30 540 541 539 -40 36 39 35 595 598 597 596 134 130 132 -45 44 43 730 733 731 729 734 732 434 -46 47 42 593 594 131 135 128 129 133 -51 50 48 49 52 53 682 262 677 681 680 678 263 259 260 679 261 -55 56 54 282 280 281 279 283 405 404 403 -57 61 8 9 10 528 532 533 530 529 531 -60 59 58 415 418 416 414 412 413 417 -63 62 64 242 239 245 240 244 243 241 -65 711 710 713 715 714 712 211 213 212 471 467 470 -71 73 72 307 308 304 305 310 -83 82 81 654 656 655 653 -85 461 460 465 466 459 462 463 464 575 -89 285 694 696 695 -91 90 580 581 578 579 582 -95 97 94 98 332 331 330 219 220 222 221 -96 93 92 504 505 345 343 342 339 344 341 340 -105 104 106 103 108 107 423 419 422 420 421 619 617 618 -109 367 368 139 141 -112 111 110 426 424 425 427 428 -114 116 117 38 41 37 322 323 321 320 -115 113 361 359 362 363 365 364 360 358 -125 516 513 514 515 309 306 -126 124 127 511 508 512 510 507 509 697 -137 138 249 248 247 250 246 722 721 724 723 -142 140 606 605 607 370 369 371 372 366 -150 148 152 147 151 149 547 548 546 549 -162 160 268 267 266 265 264 -164 163 161 622 620 621 -172 400 399 397 398 554 556 557 555 553 552 550 551 -176 174 171 173 175 391 393 392 390 396 389 395 394 -179 178 182 181 450 451 453 454 183 189 185 187 186 184 188 -191 192 190 326 327 -193 229 231 338 335 334 337 336 333 499 500 498 496 497 495 494 -197 198 196 195 194 325 324 200 199 -208 209 210 468 469 -218 217 214 216 215 501 503 502 506 -230 228 227 718 716 719 720 717 -232 235 234 233 270 272 271 -238 237 236 408 406 407 409 411 410 -253 252 251 402 401 -256 254 255 205 201 202 206 203 207 204 613 611 612 609 608 610 -258 257 614 615 616 -273 269 75 78 74 77 80 79 76 570 -276 275 274 658 657 662 660 661 659 663 -278 277 146 143 144 145 674 675 676 671 673 672 -288 290 287 291 289 284 286 700 705 704 703 701 702 699 698 -297 586 587 69 66 67 68 70 350 351 346 349 347 348 352 -298 292 299 293 295 294 296 726 727 728 725 -301 302 300 303 34 32 31 29 33 354 353 357 356 355 -313 312 314 311 102 101 99 100 442 441 -318 319 317 316 315 590 588 591 592 589 -328 329 87 84 86 88 774 775 771 776 773 490 491 493 492 -373 375 377 374 481 480 484 479 483 482 -376 378 634 635 637 638 636 645 647 646 -379 382 380 170 167 648 650 640 639 -381 168 166 169 165 643 641 642 644 -436 435 153 157 154 156 158 159 155 628 626 627 -437 438 440 683 686 685 684 -439 177 180 452 449 448 447 670 666 -446 444 443 445 669 668 667 664 665 -456 455 457 458 224 225 226 542 -472 475 474 476 473 477 478 558 559 -487 486 488 489 485 564 567 565 566 568 -517 223 526 527 525 -519 518 123 120 118 122 121 119 690 692 691 -524 522 520 523 521 693 687 688 689 -543 545 544 -560 561 563 562 387 383 385 386 388 384 652 651 649 -599 601 600 603 602 604 632 629 631 633 630 -708 706 709 707 781 780 777 779 778 782 -735 736 738 739 737 791 788 790 789 793 792 -740 741 746 743 745 742 744 770 769 772 -754 757 753 756 755 760 761 758 759 762 0 





OBJ=
4434.757
BEST_KNOWN=
0.000